NAME : tsp_44_sol.txt
COMMENT : OR-Tools Guided Local Search
TYPE : TOUR
DIMENSION : 50
COST : 6057
STATUS : ROUTING_SUCCESS
GAP : 0.00% (Reference Solution)
TOUR_SECTION
1
11
2
21
41
34
48
27
4
16
44
37
23
8
15
45
25
19
6
39
7
17
29
13
42
14
31
49
26
22
20
36
47
18
3
33
9
24
50
32
40
30
12
28
38
5
35
10
46
43
-1
